50, 640
10, 36
5, 6
14, 32
12, 30
2, 11
29, 31
24, 12
27, 49
15, 22
2, 22
50, 12
34, 11
11, 14
22, 16
4, 34
50, 47
1, 35
30, 8
50, 30
19, 14
45, 29
17, 39
25, 43
35, 2
43, 10
39, 13
1, 40
29, 29
48, 24
49, 15
20, 47
21, 13
22, 21
25, 26
19, 49
7, 27
42, 2
8, 39
16, 23
38, 38
3, 28
44, 21
35, 35
49, 26
3, 20
43, 38
44, 30
48, 34
42, 10
9, 25
